n = 10;
colSum=[0,6,7,5,3,1,4,3,3,2];
rowSum=[4,2,2,8,0,2,7,1,3,5];
groups=[|1,1,2,2,3,3,3,4,4,4|1,3,2,3,3,4,4,4,4,4|1,3,3,3,3,4,5,4,6,6|1,1,7,3,7,5,5,4,4,6|1,1,7,7,7,5,5,5,4,6|7,1,7,7,7,5,8,5,5,6|7,7,7,7,8,5,8,5,5,6|7,9,9,9,8,8,8,5,5,6|9,9,9,9,8,8,8,5,6,6|10,10,10,8,8,8,8,8,6,6|];
rowN = 10;
colN = 10;
pair=[|0,1,1,0,0,0,1,0,0,0|0,0,1,0,0,0,0,0,0,0|1,1,0,1,0,0,1,0,0,0|0,0,0,0,1,1,0,0,0,0|0,0,0,1,0,1,0,1,0,0|0,0,0,1,0,0,0,0,0,0|1,0,1,0,1,0,0,1,1,0|0,0,0,0,1,1,0,0,0,0|0,0,0,0,0,0,0,1,0,1|0,0,0,0,0,0,0,1,0,0|];
